; 
(set-info :status unknown)
(declare-fun var_14_0 () Int)
(declare-fun var_13_0 () Int)
(declare-fun var_12_0 () Int)
(declare-fun var_11_0 () Int)
(declare-fun var_10_0 () Int)
(declare-fun var_9_0 () Int)
(declare-fun var_8_0 () Int)
(declare-fun var_7_0 () Int)
(declare-fun var_6_0 () Int)
(declare-fun var_5_0 () Int)
(declare-fun var_4_0 () Int)
(declare-fun var_3_0 () Int)
(declare-fun var_2_0 () Int)
(declare-fun var_1_0 () Int)
(declare-fun var_0_0 () Int)
(declare-fun a_0_0_1 () Int)
(declare-fun a_0_0_0 () Int)
(declare-fun a_0_0 () Int)
(declare-fun var_8_1 () Int)
(declare-fun a_28_0_1 () Int)
(declare-fun a_28_0_0 () Int)
(declare-fun a_28_0 () Int)
(declare-fun var_2_1 () Int)
(declare-fun a_9_0_1 () Int)
(declare-fun a_9_0_0 () Int)
(declare-fun a_9_0 () Int)
(declare-fun var_12_1 () Int)
(declare-fun b_9_0_3 () Int)
(declare-fun b_9_0_2 () Int)
(declare-fun b_9_0_1 () Int)
(declare-fun b_9_0_0 () Int)
(declare-fun b_9_3 () Int)
(declare-fun a_3_0_1 () Int)
(declare-fun a_3_0_0 () Int)
(declare-fun a_3_0 () Int)
(declare-fun var_0_1 () Int)
(declare-fun b_3_0_3 () Int)
(declare-fun b_3_0_2 () Int)
(declare-fun b_3_0_1 () Int)
(declare-fun b_3_0_0 () Int)
(declare-fun b_3_29 () Int)
(declare-fun a_29_0_1 () Int)
(declare-fun a_29_0_0 () Int)
(declare-fun a_29_0 () Int)
(declare-fun var_12_2 () Int)
(assert
 (let ((?x51 (ite (= var_14_0 0) 1 0)))
 (let ((?x49 (ite (= var_13_0 0) 1 0)))
 (let ((?x47 (ite (= var_12_0 0) 1 0)))
 (let ((?x45 (ite (= var_11_0 0) 1 0)))
 (let ((?x43 (ite (= var_10_0 0) 1 0)))
 (let ((?x41 (ite (= var_9_0 0) 1 0)))
 (let ((?x39 (ite (= var_8_0 0) 1 0)))
 (let ((?x37 (ite (= var_7_0 0) 1 0)))
 (let ((?x35 (ite (= var_6_0 0) 1 0)))
 (let ((?x33 (ite (= var_5_0 0) 1 0)))
 (let ((?x31 (ite (= var_4_0 0) 1 0)))
 (let ((?x29 (ite (= var_3_0 0) 1 0)))
 (let ((?x27 (ite (= var_2_0 0) 1 0)))
 (let ((?x25 (ite (= var_1_0 0) 1 0)))
 (let ((?x23 (ite (= var_0_0 0) 1 0)))
 (let ((?x52 (+ ?x23 ?x25 ?x27 ?x29 ?x31 ?x33 ?x35 ?x37 ?x39 ?x41 ?x43 ?x45 ?x47 ?x49 ?x51)))
 (<= ?x52 7))))))))))))))))))
(assert
 (let (($x116 (= var_14_0 (- 437))))
 (let (($x113 (= var_13_0 452)))
 (let (($x110 (= var_12_0 (- 53))))
 (let (($x107 (= var_11_0 178)))
 (let (($x104 (= var_10_0 400)))
 (let (($x101 (= var_9_0 158)))
 (let (($x98 (= var_8_0 871)))
 (let (($x95 (= var_7_0 851)))
 (let (($x92 (= var_6_0 170)))
 (let (($x89 (= var_5_0 729)))
 (let (($x86 (= var_4_0 997)))
 (let (($x83 (= var_3_0 894)))
 (let (($x80 (= var_2_0 375)))
 (let (($x77 (= var_1_0 (- 6))))
 (let (($x74 (= var_0_0 (- 406))))
 (let (($x75 (and true $x74)))
 (let (($x78 (and $x75 $x77)))
 (let (($x81 (and $x78 $x80)))
 (let (($x84 (and $x81 $x83)))
 (let (($x87 (and $x84 $x86)))
 (let (($x90 (and $x87 $x89)))
 (let (($x93 (and $x90 $x92)))
 (let (($x96 (and $x93 $x95)))
 (let (($x99 (and $x96 $x98)))
 (let (($x102 (and $x99 $x101)))
 (let (($x105 (and $x102 $x104)))
 (let (($x108 (and $x105 $x107)))
 (let (($x111 (and $x108 $x110)))
 (let (($x114 (and $x111 $x113)))
 (and $x114 $x116)))))))))))))))))))))))))))))))
(assert
 (let (($x134 (<= var_12_0 2147483647)))
 (let (($x132 (>= var_12_0 (- 2147483648))))
 (and $x132 $x134))))
(assert
 (let (($x139 (<= var_9_0 2147483647)))
 (let (($x138 (>= var_9_0 (- 2147483648))))
 (and $x138 $x139))))
(assert
 (let (($x146 (<= a_0_0_0 1024)))
 (let (($x144 (>= a_0_0_0 (- 1024))))
 (let (($x147 (and $x144 $x146)))
 (let (($x148 (and true $x147)))
 (and $x148 (and (>= a_0_0_1 (- 1024)) (<= a_0_0_1 1024))))))))
(assert
 (let (($x155 (<= a_0_0 2147483647)))
 (let (($x154 (>= a_0_0 (- 2147483648))))
 (and $x154 $x155))))
(assert
 (and (<= (* a_0_0_0 var_12_0) 2147483647) (>= (* a_0_0_0 var_12_0) (- 2147483648))))
(assert
 (and (<= (* a_0_0_0 var_12_0) 2147483647) (>= (* a_0_0_0 var_12_0) (- 2147483648))))
(assert
 (and (<= (* a_0_0_1 var_9_0) 2147483647) (>= (* a_0_0_1 var_9_0) (- 2147483648))))
(assert
 (and (<= (+ (* a_0_0_0 var_12_0) (* a_0_0_1 var_9_0)) 2147483647) (>= (+ (* a_0_0_0 var_12_0) (* a_0_0_1 var_9_0)) (- 2147483648))))
(assert
 (let (($x154 (>= a_0_0 (- 2147483648))))
 (let (($x155 (<= a_0_0 2147483647)))
 (and $x155 $x154))))
(assert
 (let ((?x142 (* a_0_0_1 var_9_0)))
 (let ((?x137 (* a_0_0_0 var_12_0)))
 (let ((?x163 (+ ?x137 ?x142)))
 (let ((?x176 (+ ?x163 a_0_0)))
 (and (<= ?x176 2147483647) (>= ?x176 (- 2147483648))))))))
(assert
 (let ((?x142 (* a_0_0_1 var_9_0)))
 (let ((?x137 (* a_0_0_0 var_12_0)))
 (let ((?x163 (+ ?x137 ?x142)))
 (let ((?x176 (+ ?x163 a_0_0)))
 (= var_8_1 ?x176))))))
(assert
 (let ((?x195 (ite (= a_0_0 0) 1 0)))
 (let ((?x193 (ite (= a_0_0_1 0) 1 0)))
 (let ((?x189 (ite (= a_0_0_0 0) 1 0)))
 (<= (+ ?x189 ?x193 ?x195) 1)))))
(assert
 (let (($x199 (<= var_2_0 2147483647)))
 (let (($x198 (>= var_2_0 (- 2147483648))))
 (and $x198 $x199))))
(assert
 (let (($x134 (<= var_12_0 2147483647)))
 (let (($x132 (>= var_12_0 (- 2147483648))))
 (and $x132 $x134))))
(assert
 (let (($x206 (<= a_28_0_0 1024)))
 (let (($x205 (>= a_28_0_0 (- 1024))))
 (let (($x207 (and $x205 $x206)))
 (let (($x208 (and true $x207)))
 (and $x208 (and (>= a_28_0_1 (- 1024)) (<= a_28_0_1 1024))))))))
(assert
 (let (($x215 (<= a_28_0 2147483647)))
 (let (($x214 (>= a_28_0 (- 2147483648))))
 (and $x214 $x215))))
(assert
 (and (<= (* a_28_0_0 var_2_0) 2147483647) (>= (* a_28_0_0 var_2_0) (- 2147483648))))
(assert
 (and (<= (* a_28_0_0 var_2_0) 2147483647) (>= (* a_28_0_0 var_2_0) (- 2147483648))))
(assert
 (and (<= (* a_28_0_1 var_12_0) 2147483647) (>= (* a_28_0_1 var_12_0) (- 2147483648))))
(assert
 (and (<= (+ (* a_28_0_0 var_2_0) (* a_28_0_1 var_12_0)) 2147483647) (>= (+ (* a_28_0_0 var_2_0) (* a_28_0_1 var_12_0)) (- 2147483648))))
(assert
 (let (($x214 (>= a_28_0 (- 2147483648))))
 (let (($x215 (<= a_28_0 2147483647)))
 (and $x215 $x214))))
(assert
 (let ((?x204 (* a_28_0_1 var_12_0)))
 (let ((?x202 (* a_28_0_0 var_2_0)))
 (let ((?x223 (+ ?x202 ?x204)))
 (let ((?x236 (+ ?x223 a_28_0)))
 (and (<= ?x236 2147483647) (>= ?x236 (- 2147483648))))))))
(assert
 (let ((?x204 (* a_28_0_1 var_12_0)))
 (let ((?x202 (* a_28_0_0 var_2_0)))
 (let ((?x223 (+ ?x202 ?x204)))
 (let ((?x236 (+ ?x223 a_28_0)))
 (= var_2_1 ?x236))))))
(assert
 (let ((?x254 (ite (= a_28_0 0) 1 0)))
 (let ((?x252 (ite (= a_28_0_1 0) 1 0)))
 (let ((?x248 (ite (= a_28_0_0 0) 1 0)))
 (<= (+ ?x248 ?x252 ?x254) 1)))))
(assert
 (let (($x258 (<= var_13_0 2147483647)))
 (let (($x257 (>= var_13_0 (- 2147483648))))
 (and $x257 $x258))))
(assert
 (let (($x263 (<= var_7_0 2147483647)))
 (let (($x262 (>= var_7_0 (- 2147483648))))
 (and $x262 $x263))))
(assert
 (let (($x268 (<= a_9_0_0 1024)))
 (let (($x267 (>= a_9_0_0 (- 1024))))
 (let (($x269 (and $x267 $x268)))
 (let (($x270 (and true $x269)))
 (and $x270 (and (>= a_9_0_1 (- 1024)) (<= a_9_0_1 1024))))))))
(assert
 (let (($x277 (<= a_9_0 2147483647)))
 (let (($x276 (>= a_9_0 (- 2147483648))))
 (and $x276 $x277))))
(assert
 (and (<= (* a_9_0_0 var_13_0) 2147483647) (>= (* a_9_0_0 var_13_0) (- 2147483648))))
(assert
 (and (<= (* a_9_0_0 var_13_0) 2147483647) (>= (* a_9_0_0 var_13_0) (- 2147483648))))
(assert
 (and (<= (* a_9_0_1 var_7_0) 2147483647) (>= (* a_9_0_1 var_7_0) (- 2147483648))))
(assert
 (and (<= (+ (* a_9_0_0 var_13_0) (* a_9_0_1 var_7_0)) 2147483647) (>= (+ (* a_9_0_0 var_13_0) (* a_9_0_1 var_7_0)) (- 2147483648))))
(assert
 (let (($x276 (>= a_9_0 (- 2147483648))))
 (let (($x277 (<= a_9_0 2147483647)))
 (and $x277 $x276))))
(assert
 (let ((?x266 (* a_9_0_1 var_7_0)))
 (let ((?x261 (* a_9_0_0 var_13_0)))
 (let ((?x285 (+ ?x261 ?x266)))
 (let ((?x298 (+ ?x285 a_9_0)))
 (and (<= ?x298 2147483647) (>= ?x298 (- 2147483648))))))))
(assert
 (let ((?x266 (* a_9_0_1 var_7_0)))
 (let ((?x261 (* a_9_0_0 var_13_0)))
 (let ((?x285 (+ ?x261 ?x266)))
 (let ((?x298 (+ ?x285 a_9_0)))
 (= var_12_1 ?x298))))))
(assert
 (let ((?x316 (ite (= a_9_0 0) 1 0)))
 (let ((?x314 (ite (= a_9_0_1 0) 1 0)))
 (let ((?x310 (ite (= a_9_0_0 0) 1 0)))
 (<= (+ ?x310 ?x314 ?x316) 1)))))
(assert
 (let (($x320 (<= var_12_1 2147483647)))
 (let (($x319 (>= var_12_1 (- 2147483648))))
 (and $x319 $x320))))
(assert
 (let (($x325 (<= var_4_0 2147483647)))
 (let (($x324 (>= var_4_0 (- 2147483648))))
 (and $x324 $x325))))
(assert
 (let (($x258 (<= var_13_0 2147483647)))
 (let (($x257 (>= var_13_0 (- 2147483648))))
 (and $x257 $x258))))
(assert
 (let (($x332 (<= var_1_0 2147483647)))
 (let (($x331 (>= var_1_0 (- 2147483648))))
 (and $x331 $x332))))
(assert
 (let (($x337 (<= b_9_0_0 1024)))
 (let (($x336 (>= b_9_0_0 (- 1024))))
 (let (($x338 (and $x336 $x337)))
 (let (($x339 (and true $x338)))
 (let (($x343 (and $x339 (and (>= b_9_0_1 (- 1024)) (<= b_9_0_1 1024)))))
 (let (($x347 (and $x343 (and (>= b_9_0_2 (- 1024)) (<= b_9_0_2 1024)))))
 (and $x347 (and (>= b_9_0_3 (- 1024)) (<= b_9_0_3 1024))))))))))
(assert
 (let ((?x361 (ite (= b_9_0_3 0) 1 0)))
 (let ((?x359 (ite (= b_9_0_2 0) 1 0)))
 (let ((?x357 (ite (= b_9_0_1 0) 1 0)))
 (let ((?x355 (ite (= b_9_0_0 0) 1 0)))
 (<= (+ ?x355 ?x357 ?x359 ?x361) 2))))))
(assert
 (let (($x367 (<= b_9_3 2147483647)))
 (let (($x366 (>= b_9_3 (- 2147483648))))
 (and $x366 $x367))))
(assert
 (and (<= (* b_9_0_0 var_12_1) 2147483647) (>= (* b_9_0_0 var_12_1) (- 2147483648))))
(assert
 (and (<= (* b_9_0_0 var_12_1) 2147483647) (>= (* b_9_0_0 var_12_1) (- 2147483648))))
(assert
 (and (<= (* b_9_0_1 var_4_0) 2147483647) (>= (* b_9_0_1 var_4_0) (- 2147483648))))
(assert
 (and (<= (+ (* b_9_0_0 var_12_1) (* b_9_0_1 var_4_0)) 2147483647) (>= (+ (* b_9_0_0 var_12_1) (* b_9_0_1 var_4_0)) (- 2147483648))))
(assert
 (and (<= (* b_9_0_2 var_13_0) 2147483647) (>= (* b_9_0_2 var_13_0) (- 2147483648))))
(assert
 (let ((?x330 (* b_9_0_2 var_13_0)))
 (let ((?x328 (* b_9_0_1 var_4_0)))
 (let ((?x323 (* b_9_0_0 var_12_1)))
 (let ((?x375 (+ ?x323 ?x328)))
 (let ((?x388 (+ ?x375 ?x330)))
 (and (<= ?x388 2147483647) (>= ?x388 (- 2147483648)))))))))
(assert
 (and (<= (* b_9_0_3 var_1_0) 2147483647) (>= (* b_9_0_3 var_1_0) (- 2147483648))))
(assert
 (let ((?x335 (* b_9_0_3 var_1_0)))
 (let ((?x330 (* b_9_0_2 var_13_0)))
 (let ((?x328 (* b_9_0_1 var_4_0)))
 (let ((?x323 (* b_9_0_0 var_12_1)))
 (let ((?x375 (+ ?x323 ?x328)))
 (let ((?x388 (+ ?x375 ?x330)))
 (let ((?x401 (+ ?x388 ?x335)))
 (and (<= ?x401 2147483647) (>= ?x401 (- 2147483648)))))))))))
(assert
 (let (($x366 (>= b_9_3 (- 2147483648))))
 (let (($x367 (<= b_9_3 2147483647)))
 (and $x367 $x366))))
(assert
 (let ((?x335 (* b_9_0_3 var_1_0)))
 (let ((?x330 (* b_9_0_2 var_13_0)))
 (let ((?x328 (* b_9_0_1 var_4_0)))
 (let ((?x323 (* b_9_0_0 var_12_1)))
 (let ((?x375 (+ ?x323 ?x328)))
 (let ((?x388 (+ ?x375 ?x330)))
 (let ((?x401 (+ ?x388 ?x335)))
 (let ((?x414 (+ ?x401 b_9_3)))
 (and (<= ?x414 2147483647) (>= ?x414 (- 2147483648))))))))))))
(assert
 (let ((?x335 (* b_9_0_3 var_1_0)))
 (let ((?x330 (* b_9_0_2 var_13_0)))
 (let ((?x328 (* b_9_0_1 var_4_0)))
 (let ((?x323 (* b_9_0_0 var_12_1)))
 (let ((?x375 (+ ?x323 ?x328)))
 (let ((?x388 (+ ?x375 ?x330)))
 (let ((?x401 (+ ?x388 ?x335)))
 (let ((?x414 (+ ?x401 b_9_3)))
 (>= ?x414 0))))))))))
(assert
 (let (($x425 (<= var_5_0 2147483647)))
 (let (($x424 (>= var_5_0 (- 2147483648))))
 (and $x424 $x425))))
(assert
 (let (($x320 (<= var_12_1 2147483647)))
 (let (($x319 (>= var_12_1 (- 2147483648))))
 (and $x319 $x320))))
(assert
 (let (($x432 (<= a_3_0_0 1024)))
 (let (($x431 (>= a_3_0_0 (- 1024))))
 (let (($x433 (and $x431 $x432)))
 (let (($x434 (and true $x433)))
 (and $x434 (and (>= a_3_0_1 (- 1024)) (<= a_3_0_1 1024))))))))
(assert
 (let (($x441 (<= a_3_0 2147483647)))
 (let (($x440 (>= a_3_0 (- 2147483648))))
 (and $x440 $x441))))
(assert
 (and (<= (* a_3_0_0 var_5_0) 2147483647) (>= (* a_3_0_0 var_5_0) (- 2147483648))))
(assert
 (and (<= (* a_3_0_0 var_5_0) 2147483647) (>= (* a_3_0_0 var_5_0) (- 2147483648))))
(assert
 (and (<= (* a_3_0_1 var_12_1) 2147483647) (>= (* a_3_0_1 var_12_1) (- 2147483648))))
(assert
 (and (<= (+ (* a_3_0_0 var_5_0) (* a_3_0_1 var_12_1)) 2147483647) (>= (+ (* a_3_0_0 var_5_0) (* a_3_0_1 var_12_1)) (- 2147483648))))
(assert
 (let (($x440 (>= a_3_0 (- 2147483648))))
 (let (($x441 (<= a_3_0 2147483647)))
 (and $x441 $x440))))
(assert
 (let ((?x430 (* a_3_0_1 var_12_1)))
 (let ((?x428 (* a_3_0_0 var_5_0)))
 (let ((?x449 (+ ?x428 ?x430)))
 (let ((?x462 (+ ?x449 a_3_0)))
 (and (<= ?x462 2147483647) (>= ?x462 (- 2147483648))))))))
(assert
 (let ((?x430 (* a_3_0_1 var_12_1)))
 (let ((?x428 (* a_3_0_0 var_5_0)))
 (let ((?x449 (+ ?x428 ?x430)))
 (let ((?x462 (+ ?x449 a_3_0)))
 (= var_0_1 ?x462))))))
(assert
 (let ((?x480 (ite (= a_3_0 0) 1 0)))
 (let ((?x478 (ite (= a_3_0_1 0) 1 0)))
 (let ((?x474 (ite (= a_3_0_0 0) 1 0)))
 (<= (+ ?x474 ?x478 ?x480) 1)))))
(assert
 (let (($x484 (<= var_0_1 2147483647)))
 (let (($x483 (>= var_0_1 (- 2147483648))))
 (and $x483 $x484))))
(assert
 (let (($x258 (<= var_13_0 2147483647)))
 (let (($x257 (>= var_13_0 (- 2147483648))))
 (and $x257 $x258))))
(assert
 (let (($x491 (<= var_6_0 2147483647)))
 (let (($x490 (>= var_6_0 (- 2147483648))))
 (and $x490 $x491))))
(assert
 (let (($x320 (<= var_12_1 2147483647)))
 (let (($x319 (>= var_12_1 (- 2147483648))))
 (and $x319 $x320))))
(assert
 (let (($x498 (<= b_3_0_0 1024)))
 (let (($x497 (>= b_3_0_0 (- 1024))))
 (let (($x499 (and $x497 $x498)))
 (let (($x500 (and true $x499)))
 (let (($x504 (and $x500 (and (>= b_3_0_1 (- 1024)) (<= b_3_0_1 1024)))))
 (let (($x508 (and $x504 (and (>= b_3_0_2 (- 1024)) (<= b_3_0_2 1024)))))
 (and $x508 (and (>= b_3_0_3 (- 1024)) (<= b_3_0_3 1024))))))))))
(assert
 (let ((?x522 (ite (= b_3_0_3 0) 1 0)))
 (let ((?x520 (ite (= b_3_0_2 0) 1 0)))
 (let ((?x518 (ite (= b_3_0_1 0) 1 0)))
 (let ((?x516 (ite (= b_3_0_0 0) 1 0)))
 (<= (+ ?x516 ?x518 ?x520 ?x522) 2))))))
(assert
 (let (($x527 (<= b_3_29 2147483647)))
 (let (($x526 (>= b_3_29 (- 2147483648))))
 (and $x526 $x527))))
(assert
 (and (<= (* b_3_0_0 var_0_1) 2147483647) (>= (* b_3_0_0 var_0_1) (- 2147483648))))
(assert
 (and (<= (* b_3_0_0 var_0_1) 2147483647) (>= (* b_3_0_0 var_0_1) (- 2147483648))))
(assert
 (and (<= (* b_3_0_1 var_13_0) 2147483647) (>= (* b_3_0_1 var_13_0) (- 2147483648))))
(assert
 (and (<= (+ (* b_3_0_0 var_0_1) (* b_3_0_1 var_13_0)) 2147483647) (>= (+ (* b_3_0_0 var_0_1) (* b_3_0_1 var_13_0)) (- 2147483648))))
(assert
 (and (<= (* b_3_0_2 var_6_0) 2147483647) (>= (* b_3_0_2 var_6_0) (- 2147483648))))
(assert
 (let ((?x494 (* b_3_0_2 var_6_0)))
 (let ((?x489 (* b_3_0_1 var_13_0)))
 (let ((?x487 (* b_3_0_0 var_0_1)))
 (let ((?x535 (+ ?x487 ?x489)))
 (let ((?x548 (+ ?x535 ?x494)))
 (and (<= ?x548 2147483647) (>= ?x548 (- 2147483648)))))))))
(assert
 (and (<= (* b_3_0_3 var_12_1) 2147483647) (>= (* b_3_0_3 var_12_1) (- 2147483648))))
(assert
 (let ((?x496 (* b_3_0_3 var_12_1)))
 (let ((?x494 (* b_3_0_2 var_6_0)))
 (let ((?x489 (* b_3_0_1 var_13_0)))
 (let ((?x487 (* b_3_0_0 var_0_1)))
 (let ((?x535 (+ ?x487 ?x489)))
 (let ((?x548 (+ ?x535 ?x494)))
 (let ((?x561 (+ ?x548 ?x496)))
 (and (<= ?x561 2147483647) (>= ?x561 (- 2147483648)))))))))))
(assert
 (let (($x526 (>= b_3_29 (- 2147483648))))
 (let (($x527 (<= b_3_29 2147483647)))
 (and $x527 $x526))))
(assert
 (let ((?x496 (* b_3_0_3 var_12_1)))
 (let ((?x494 (* b_3_0_2 var_6_0)))
 (let ((?x489 (* b_3_0_1 var_13_0)))
 (let ((?x487 (* b_3_0_0 var_0_1)))
 (let ((?x535 (+ ?x487 ?x489)))
 (let ((?x548 (+ ?x535 ?x494)))
 (let ((?x561 (+ ?x548 ?x496)))
 (let ((?x574 (+ ?x561 b_3_29)))
 (and (<= ?x574 2147483647) (>= ?x574 (- 2147483648))))))))))))
(assert
 (let ((?x496 (* b_3_0_3 var_12_1)))
 (let ((?x494 (* b_3_0_2 var_6_0)))
 (let ((?x489 (* b_3_0_1 var_13_0)))
 (let ((?x487 (* b_3_0_0 var_0_1)))
 (let ((?x535 (+ ?x487 ?x489)))
 (let ((?x548 (+ ?x535 ?x494)))
 (let ((?x561 (+ ?x548 ?x496)))
 (let ((?x574 (+ ?x561 b_3_29)))
 (>= ?x574 0))))))))))
(assert
 (let (($x425 (<= var_5_0 2147483647)))
 (let (($x424 (>= var_5_0 (- 2147483648))))
 (and $x424 $x425))))
(assert
 (let (($x587 (<= var_2_1 2147483647)))
 (let (($x586 (>= var_2_1 (- 2147483648))))
 (and $x586 $x587))))
(assert
 (let (($x592 (<= a_29_0_0 1024)))
 (let (($x591 (>= a_29_0_0 (- 1024))))
 (let (($x593 (and $x591 $x592)))
 (let (($x594 (and true $x593)))
 (and $x594 (and (>= a_29_0_1 (- 1024)) (<= a_29_0_1 1024))))))))
(assert
 (let (($x601 (<= a_29_0 2147483647)))
 (let (($x600 (>= a_29_0 (- 2147483648))))
 (and $x600 $x601))))
(assert
 (and (<= (* a_29_0_0 var_5_0) 2147483647) (>= (* a_29_0_0 var_5_0) (- 2147483648))))
(assert
 (and (<= (* a_29_0_0 var_5_0) 2147483647) (>= (* a_29_0_0 var_5_0) (- 2147483648))))
(assert
 (and (<= (* a_29_0_1 var_2_1) 2147483647) (>= (* a_29_0_1 var_2_1) (- 2147483648))))
(assert
 (and (<= (+ (* a_29_0_0 var_5_0) (* a_29_0_1 var_2_1)) 2147483647) (>= (+ (* a_29_0_0 var_5_0) (* a_29_0_1 var_2_1)) (- 2147483648))))
(assert
 (let (($x600 (>= a_29_0 (- 2147483648))))
 (let (($x601 (<= a_29_0 2147483647)))
 (and $x601 $x600))))
(assert
 (let ((?x590 (* a_29_0_1 var_2_1)))
 (let ((?x585 (* a_29_0_0 var_5_0)))
 (let ((?x609 (+ ?x585 ?x590)))
 (let ((?x622 (+ ?x609 a_29_0)))
 (and (<= ?x622 2147483647) (>= ?x622 (- 2147483648))))))))
(assert
 (let ((?x590 (* a_29_0_1 var_2_1)))
 (let ((?x585 (* a_29_0_0 var_5_0)))
 (let ((?x609 (+ ?x585 ?x590)))
 (let ((?x622 (+ ?x609 a_29_0)))
 (= var_12_2 ?x622))))))
(assert
 (let ((?x640 (ite (= a_29_0 0) 1 0)))
 (let ((?x638 (ite (= a_29_0_1 0) 1 0)))
 (let ((?x634 (ite (= a_29_0_0 0) 1 0)))
 (<= (+ ?x634 ?x638 ?x640) 1)))))
(check-sat)
